instances/knapsack/discrete_knapsack_uncertainty/knapsack_140_5.lp
\ Model knapsack_140_5
\ LP format - for model browsing. Use MPS format to capture full model detail.
\ Signature: 0x9977cb8fbdb63468
Minimize
  - 88 x[0] - 81 x[1] - 78 x[2] - 46 x[3] - 48 x[4] - 87 x[5] - 88 x[6]
   - 74 x[7] - 37 x[8] - 85 x[9] - 33 x[10] - 17 x[11] - 89 x[12]
   - 44 x[13] - 73 x[14] - 30 x[15] - 100 x[16] - 96 x[17] - 49 x[18]
   - 4 x[19] - 44 x[20] - 13 x[21] - 38 x[22] - 62 x[23] - 59 x[24]
   - 61 x[25] - 54 x[26] - 78 x[27] - 100 x[28] - 79 x[29] - 75 x[30]
   - 42 x[31] - 26 x[32] - 45 x[33] - 14 x[34] - 71 x[35] - 3 x[36]
   - 89 x[37] - 89 x[38] - 50 x[39] - 22 x[40] - 52 x[41] - 100 x[42]
   - 65 x[43] - 97 x[44] - 69 x[45] - 99 x[46] - 55 x[47] - 15 x[48]
   - 44 x[49] - 5 x[50] - 41 x[51] - 21 x[52] - 31 x[53] - 14 x[54]
   - 44 x[55] - 97 x[56] - 18 x[57] - 46 x[58] - 85 x[59] - 50 x[60]
   - 44 x[61] - 76 x[62] - 16 x[63] - 73 x[64] - 63 x[65] - 7 x[66]
   - 8 x[67] - 99 x[68] - 84 x[69] - 63 x[70] - 29 x[71] - 27 x[72]
   - 52 x[73] - 93 x[74] - 16 x[75] - 92 x[76] - 99 x[77] - 18 x[78]
   - 70 x[79] - 33 x[80] - 68 x[81] - 64 x[82] - 28 x[83] - 11 x[84]
   - 3 x[85] - 84 x[86] - 85 x[87] - 78 x[88] - 33 x[89] - 92 x[90]
   - 36 x[91] - 28 x[92] - 75 x[93] - 18 x[94] - 17 x[95] - 47 x[96]
   - 42 x[97] - 15 x[98] - 39 x[99] - 91 x[100] - 32 x[101] - 17 x[102]
   - 12 x[103] - 17 x[104] - 77 x[105] - 4 x[106] - 7 x[107] - 80 x[108]
   - 91 x[109] - 8 x[110] - 76 x[111] - 92 x[112] - 30 x[113] - 96 x[114]
   - 59 x[115] - 73 x[116] - 15 x[117] - 44 x[118] - 33 x[119] - 24 x[120]
   - 97 x[121] - 40 x[122] - 89 x[123] - 38 x[124] - 95 x[125] - 11 x[126]
   - 28 x[127] - 66 x[128] - 79 x[129] - 57 x[130] - 5 x[131] - 2 x[132]
   - 65 x[133] - 64 x[134] - 54 x[135] - 15 x[136] - 28 x[137] - 97 x[138]
   - 100 x[139]
Subject To
 primal_upper: 30 x[0] + 46 x[1] + 48 x[2] + 65 x[3] + 82 x[4] + 80 x[5]
   + 27 x[6] + 2 x[7] + 51 x[8] + 52 x[9] + 82 x[10] + 21 x[11] + 82 x[12]
   + 78 x[13] + 71 x[14] + 75 x[15] + 47 x[16] + 46 x[17] + 27 x[18]
   + 88 x[19] + 51 x[20] + 46 x[21] + 46 x[22] + 77 x[23] + 59 x[24]
   + 50 x[25] + 4 x[26] + 34 x[27] + 28 x[28] + 93 x[29] + 76 x[30]
   + 90 x[31] + 86 x[32] + 19 x[33] + 74 x[34] + 59 x[35] + 74 x[36]
   + 51 x[37] + 82 x[38] + 45 x[39] + 9 x[40] + 88 x[41] + 72 x[42]
   + 56 x[43] + 81 x[44] + 33 x[45] + 56 x[46] + 4 x[47] + 9 x[48]
   + 22 x[49] + x[50] + 62 x[51] + 43 x[52] + 42 x[53] + 43 x[54]
   + 94 x[55] + 31 x[56] + 81 x[57] + 66 x[58] + 96 x[59] + 51 x[60]
   + 5 x[61] + 58 x[62] + 69 x[63] + 30 x[64] + 10 x[65] + 91 x[66]
   + 45 x[67] + 18 x[68] + 80 x[69] + 64 x[70] + 44 x[71] + 60 x[72]
   + 65 x[73] + 86 x[74] + 31 x[75] + 5 x[76] + 9 x[77] + 75 x[78]
   + 93 x[79] + 24 x[80] + 28 x[81] + 21 x[82] + 44 x[83] + 52 x[84]
   + 8 x[85] + 66 x[86] + 38 x[87] + 16 x[88] + 85 x[89] + 95 x[90]
   + 63 x[91] + 95 x[92] + 54 x[93] + 26 x[94] + 59 x[95] + 63 x[96]
   + 71 x[97] + 30 x[98] + 90 x[99] + 19 x[100] + 54 x[101] + 28 x[102]
   + 94 x[103] + 75 x[104] + 36 x[105] + 93 x[106] + 89 x[107] + 93 x[108]
   + 63 x[109] + 29 x[110] + 89 x[111] + 75 x[112] + 23 x[113] + 71 x[114]
   + 49 x[115] + 5 x[116] + 95 x[117] + 99 x[118] + 35 x[119] + 54 x[120]
   + 7 x[121] + 70 x[122] + 81 x[123] + 51 x[124] + 33 x[125] + 14 x[126]
   + 50 x[127] + 93 x[128] + 73 x[129] + 80 x[130] + 55 x[131] + 97 x[132]
   + 54 x[133] + 3 x[134] + 92 x[135] + 3 x[136] + 21 x[137] + 76 x[138]
   + 26 x[139] + 3 r[0] + 4.6 r[1] + 4.8 r[2] + 6.5 r[3] + 8.2 r[4]
   + 8 r[5] + 2.7 r[6] + 0.2 r[7] + 5.1 r[8] + 5.2 r[9] + 8.2 r[10]
   + 2.1 r[11] + 8.2 r[12] + 7.8 r[13] + 7.1 r[14] + 7.5 r[15] + 4.7 r[16]
   + 4.6 r[17] + 2.7 r[18] + 8.8 r[19] + 5.1 r[20] + 4.6 r[21] + 4.6 r[22]
   + 7.7 r[23] + 5.9 r[24] + 5 r[25] + 0.4 r[26] + 3.4 r[27] + 2.8 r[28]
   + 9.3 r[29] + 7.6 r[30] + 9 r[31] + 8.6 r[32] + 1.9 r[33] + 7.4 r[34]
   + 5.9 r[35] + 7.4 r[36] + 5.1 r[37] + 8.2 r[38] + 4.5 r[39] + 0.9 r[40]
   + 8.8 r[41] + 7.2 r[42] + 5.6 r[43] + 8.1 r[44] + 3.3 r[45] + 5.6 r[46]
   + 0.4 r[47] + 0.9 r[48] + 2.2 r[49] + 0.1 r[50] + 6.2 r[51] + 4.3 r[52]
   + 4.2 r[53] + 4.3 r[54] + 9.4 r[55] + 3.1 r[56] + 8.1 r[57] + 6.6 r[58]
   + 9.6 r[59] + 5.1 r[60] + 0.5 r[61] + 5.8 r[62] + 6.9 r[63] + 3 r[64]
   + r[65] + 9.1 r[66] + 4.5 r[67] + 1.8 r[68] + 8 r[69] + 6.4 r[70]
   + 4.4 r[71] + 6 r[72] + 6.5 r[73] + 8.6 r[74] + 3.1 r[75] + 0.5 r[76]
   + 0.9 r[77] + 7.5 r[78] + 9.3 r[79] + 2.4 r[80] + 2.8 r[81] + 2.1 r[82]
   + 4.4 r[83] + 5.2 r[84] + 0.8 r[85] + 6.6 r[86] + 3.8 r[87] + 1.6 r[88]
   + 8.5 r[89] + 9.5 r[90] + 6.3 r[91] + 9.5 r[92] + 5.4 r[93] + 2.6 r[94]
   + 5.9 r[95] + 6.3 r[96] + 7.1 r[97] + 3 r[98] + 9 r[99] + 1.9 r[100]
   + 5.4 r[101] + 2.8 r[102] + 9.4 r[103] + 7.5 r[104] + 3.6 r[105]
   + 9.3 r[106] + 8.9 r[107] + 9.3 r[108] + 6.3 r[109] + 2.9 r[110]
   + 8.9 r[111] + 7.5 r[112] + 2.3 r[113] + 7.1 r[114] + 4.9 r[115]
   + 0.5 r[116] + 9.5 r[117] + 9.9 r[118] + 3.5 r[119] + 5.4 r[120]
   + 0.7 r[121] + 7 r[122] + 8.1 r[123] + 5.1 r[124] + 3.3 r[125]
   + 1.4 r[126] + 5 r[127] + 9.3 r[128] + 7.3 r[129] + 8 r[130]
   + 5.5 r[131] + 9.7 r[132] + 5.4 r[133] + 0.3 r[134] + 9.2 r[135]
   + 0.3 r[136] + 2.1 r[137] + 7.6 r[138] + 2.6 r[139] <= 714
 primal_lower: 2.025242646082341 x[0] + 0.1025800338912736 x[1]
   + 1.912966056985289 x[2] + 4.532781343203653 x[3]
   + 3.597413235437672 x[4] + 2.882154622124793 x[5]
   + 2.023692283424039 x[6] + 0.1496499146837084 x[7]
   + 0.3346993002433056 x[8] + 3.979296710810792 x[9]
   + 0.8616145803602651 x[10] + 2.175043394792625 x[11]
   + 4.099133426560098 x[12] + 2.027288186700517 x[13]
   + 0.1813283611279784 x[14] + 1.448202034376547 x[15]
   + 1.025568830610624 x[16] + 3.888176568557659 x[17]
   + 0.7057965541614186 x[18] + 3.179109289601229 x[19]
   + 0.7235262606805439 x[20] + 4.052641354432423 x[21]
   + 1.958427372494191 x[22] + 3.588802910976045 x[23]
   + 3.898066871382223 x[24] + 3.20477846912261 x[25]
   + 2.210366204739751 x[26] + 0.91097987545776 x[27]
   + 4.422422509073998 x[28] + 4.080163589869611 x[29]
   + 1.145279244770819 x[30] + 4.219269316963835 x[31]
   + 2.641185622074258 x[32] + 0.8589990812942679 x[33]
   + 2.089113702577572 x[34] + 3.606575023959921 x[35]
   + 2.799193384493529 x[36] + 1.89874383942838 x[37]
   + 3.627897283096884 x[38] + 2.705633840413095 x[39]
   + 4.523478364838163 x[40] + 2.703872065871678 x[41]
   + 2.770560561536913 x[42] + 3.34618683187341 x[43]
   + 0.5099595479846961 x[44] + 4.069138239091624 x[45]
   + 1.086799497504509 x[46] + 1.224629613875648 x[47]
   + 4.499354579386363 x[48] + 1.826118629290129 x[49]
   + 1.273694637188667 x[50] + 3.969431544456945 x[51]
   + 3.792031660700286 x[52] + 4.075721231264382 x[53]
   + 0.2905083944825957 x[54] + 4.159817997681147 x[55]
   + 0.672597599515717 x[56] + 2.846070686050828 x[57]
   + 4.250652641887764 x[58] + 3.066673434732132 x[59]
   + 0.7002496375281504 x[60] + 2.333300412714123 x[61]
   + 1.842027985023357 x[62] + 3.945586600372745 x[63]
   + 3.028841576996279 x[64] + 2.237950671335337 x[65]
   + 1.822668346973765 x[66] + 0.6365321855964038 x[67]
   + 3.40265188708231 x[68] + 4.172371143443748 x[69]
   + 0.1329045156393004 x[70] + 3.507164235963444 x[71]
   + 4.060475429959546 x[72] + 3.473027965159792 x[73]
   + 2.361566043379107 x[74] + 2.81893505874974 x[75]
   + 1.143373179822922 x[76] + 1.549886256594529 x[77]
   + 0.0427674190672804 x[78] + 1.697003024652536 x[79]
   + 0.0935167108858777 x[80] + 0.7905458200355581 x[81]
   + 3.384536137347031 x[82] + 2.160841148745835 x[83]
   + 4.555574762022863 x[84] + 1.479950122224045 x[85]
   + 1.1027778360928 x[86] + 1.18958951680627 x[87]
   + 0.479869089496027 x[88] + 4.168745942374787 x[89]
   + 0.6197723797092995 x[90] + 3.651923905280744 x[91]
   + 1.840291685412587 x[92] + 0.950479797725994 x[93]
   + 1.642178056913129 x[94] + 2.939631202242588 x[95]
   + 0.9446483184756238 x[96] + 1.529844836206718 x[97]
   + 2.886861683029545 x[98] + 1.763379909971756 x[99]
   + 0.6461227762199481 x[100] + 3.270659989922136 x[101]
   + 3.348896649282438 x[102] + 0.2869958694507882 x[103]
   + 1.646989035509159 x[104] + 0.7525046325043743 x[105]
   + 2.967580371299217 x[106] + 0.3494706274969952 x[107]
   + 2.009208739443259 x[108] + 1.743171927840264 x[109]
   + 0.1634465952382921 x[110] + 2.263795671592981 x[111]
   + 4.057397515512662 x[112] + 3.915493302504002 x[113]
   + 2.768061565816736 x[114] + 3.36669577990681 x[115]
   + 3.982384893554392 x[116] + 1.83697985958686 x[117]
   + 1.161794594757678 x[118] + 0.4776929832500584 x[119]
   + 1.894581962022729 x[120] + 3.770575269547809 x[121]
   + 3.39973574928051 x[122] + 1.177152049116276 x[123]
   + 4.57879481146366 x[124] + 0.0039544501103453 x[125]
   + 3.846495810034421 x[126] + 2.996669597169291 x[127]
   + 1.839705276932481 x[128] + 2.860552922683545 x[129]
   + 0.1945026816884274 x[130] + 2.60584244198696 x[131]
   + 4.340021374511338 x[132] + 1.939958401567395 x[133]
   + 1.862991136611532 x[134] + 2.702946252566674 x[135]
   + 0.7818771600954857 x[136] + 2.096081865374427 x[137]
   + 4.046907998497349 x[138] + 1.545082590962873 x[139] + 16 u[0]
   + 60 u[1] + 38 u[2] + 63 u[3] + 68 u[4] + 18 u[5] + 65 u[6] + 44 u[7]
   + 9 u[8] + 78 u[9] + 28 u[10] + 59 u[11] + 16 u[12] + 88 u[13]
   + 17 u[14] + 77 u[15] + 33 u[16] + 72 u[17] + 53 u[18] + 54 u[19]
   + 9 u[20] + 80 u[21] + 76 u[22] + 67 u[23] + 81 u[24] + 72 u[25]
   + 54 u[26] + 4 u[27] + 18 u[28] + 31 u[29] + 10 u[30] + 52 u[31]
   + 16 u[32] + 45 u[33] + 44 u[34] + 61 u[35] + 28 u[36] + u[37]
   + 84 u[38] + 35 u[39] + 63 u[40] + 94 u[41] + 90 u[42] + 46 u[43]
   + 27 u[44] + 43 u[45] + 30 u[46] + 90 u[47] + 11 u[48] + 32 u[49]
   + 15 u[50] + 60 u[51] + 29 u[52] + 16 u[53] + 65 u[54] + 92 u[55]
   + 89 u[56] + 19 u[57] + 12 u[58] + 50 u[59] + 93 u[60] + 27 u[61]
   + 8 u[62] + 11 u[63] + 64 u[64] + 92 u[65] + 49 u[66] + 95 u[67]
   + 28 u[68] + 82 u[69] + 70 u[70] + 22 u[71] + 34 u[72] + 99 u[73]
   + 16 u[74] + 85 u[75] + 51 u[76] + 79 u[77] + 33 u[78] + 35 u[79]
   + 6 u[80] + 98 u[81] + 75 u[82] + 70 u[83] + 50 u[84] + 38 u[85]
   + 48 u[86] + 72 u[87] + 10 u[88] + 15 u[89] + 61 u[90] + 49 u[91]
   + 5 u[92] + 8 u[93] + 20 u[94] + 81 u[95] + 45 u[96] + 5 u[97]
   + 40 u[98] + 92 u[99] + 81 u[100] + 52 u[101] + 42 u[102] + 84 u[103]
   + 13 u[104] + 50 u[105] + 7 u[106] + 3 u[107] + 67 u[108] + 69 u[109]
   + 23 u[110] + 71 u[111] + 49 u[112] + 61 u[113] + 81 u[114] + 27 u[115]
   + 71 u[116] + 45 u[117] + 33 u[118] + 13 u[119] + 76 u[120] + 57 u[121]
   + 84 u[122] + 91 u[123] + 65 u[124] + 31 u[125] + 48 u[126] + 32 u[127]
   + 99 u[128] + 63 u[129] + 30 u[130] + 89 u[131] + 39 u[132] + 24 u[133]
   + 45 u[134] + 94 u[135] + 17 u[136] + 3 u[137] + 14 u[138] + 48 u[139]
   <= 37138
 mccormick1[0]: - u[0] + r[0] <= 0
 mccormick1[1]: - u[1] + r[1] <= 0
 mccormick1[2]: - u[2] + r[2] <= 0
 mccormick1[3]: - u[3] + r[3] <= 0
 mccormick1[4]: - u[4] + r[4] <= 0
 mccormick1[5]: - u[5] + r[5] <= 0
 mccormick1[6]: - u[6] + r[6] <= 0
 mccormick1[7]: - u[7] + r[7] <= 0
 mccormick1[8]: - u[8] + r[8] <= 0
 mccormick1[9]: - u[9] + r[9] <= 0
 mccormick1[10]: - u[10] + r[10] <= 0
 mccormick1[11]: - u[11] + r[11] <= 0
 mccormick1[12]: - u[12] + r[12] <= 0
 mccormick1[13]: - u[13] + r[13] <= 0
 mccormick1[14]: - u[14] + r[14] <= 0
 mccormick1[15]: - u[15] + r[15] <= 0
 mccormick1[16]: - u[16] + r[16] <= 0
 mccormick1[17]: - u[17] + r[17] <= 0
 mccormick1[18]: - u[18] + r[18] <= 0
 mccormick1[19]: - u[19] + r[19] <= 0
 mccormick1[20]: - u[20] + r[20] <= 0
 mccormick1[21]: - u[21] + r[21] <= 0
 mccormick1[22]: - u[22] + r[22] <= 0
 mccormick1[23]: - u[23] + r[23] <= 0
 mccormick1[24]: - u[24] + r[24] <= 0
 mccormick1[25]: - u[25] + r[25] <= 0
 mccormick1[26]: - u[26] + r[26] <= 0
 mccormick1[27]: - u[27] + r[27] <= 0
 mccormick1[28]: - u[28] + r[28] <= 0
 mccormick1[29]: - u[29] + r[29] <= 0
 mccormick1[30]: - u[30] + r[30] <= 0
 mccormick1[31]: - u[31] + r[31] <= 0
 mccormick1[32]: - u[32] + r[32] <= 0
 mccormick1[33]: - u[33] + r[33] <= 0
 mccormick1[34]: - u[34] + r[34] <= 0
 mccormick1[35]: - u[35] + r[35] <= 0
 mccormick1[36]: - u[36] + r[36] <= 0
 mccormick1[37]: - u[37] + r[37] <= 0
 mccormick1[38]: - u[38] + r[38] <= 0
 mccormick1[39]: - u[39] + r[39] <= 0
 mccormick1[40]: - u[40] + r[40] <= 0
 mccormick1[41]: - u[41] + r[41] <= 0
 mccormick1[42]: - u[42] + r[42] <= 0
 mccormick1[43]: - u[43] + r[43] <= 0
 mccormick1[44]: - u[44] + r[44] <= 0
 mccormick1[45]: - u[45] + r[45] <= 0
 mccormick1[46]: - u[46] + r[46] <= 0
 mccormick1[47]: - u[47] + r[47] <= 0
 mccormick1[48]: - u[48] + r[48] <= 0
 mccormick1[49]: - u[49] + r[49] <= 0
 mccormick1[50]: - u[50] + r[50] <= 0
 mccormick1[51]: - u[51] + r[51] <= 0
 mccormick1[52]: - u[52] + r[52] <= 0
 mccormick1[53]: - u[53] + r[53] <= 0
 mccormick1[54]: - u[54] + r[54] <= 0
 mccormick1[55]: - u[55] + r[55] <= 0
 mccormick1[56]: - u[56] + r[56] <= 0
 mccormick1[57]: - u[57] + r[57] <= 0
 mccormick1[58]: - u[58] + r[58] <= 0
 mccormick1[59]: - u[59] + r[59] <= 0
 mccormick1[60]: - u[60] + r[60] <= 0
 mccormick1[61]: - u[61] + r[61] <= 0
 mccormick1[62]: - u[62] + r[62] <= 0
 mccormick1[63]: - u[63] + r[63] <= 0
 mccormick1[64]: - u[64] + r[64] <= 0
 mccormick1[65]: - u[65] + r[65] <= 0
 mccormick1[66]: - u[66] + r[66] <= 0
 mccormick1[67]: - u[67] + r[67] <= 0
 mccormick1[68]: - u[68] + r[68] <= 0
 mccormick1[69]: - u[69] + r[69] <= 0
 mccormick1[70]: - u[70] + r[70] <= 0
 mccormick1[71]: - u[71] + r[71] <= 0
 mccormick1[72]: - u[72] + r[72] <= 0
 mccormick1[73]: - u[73] + r[73] <= 0
 mccormick1[74]: - u[74] + r[74] <= 0
 mccormick1[75]: - u[75] + r[75] <= 0
 mccormick1[76]: - u[76] + r[76] <= 0
 mccormick1[77]: - u[77] + r[77] <= 0
 mccormick1[78]: - u[78] + r[78] <= 0
 mccormick1[79]: - u[79] + r[79] <= 0
 mccormick1[80]: - u[80] + r[80] <= 0
 mccormick1[81]: - u[81] + r[81] <= 0
 mccormick1[82]: - u[82] + r[82] <= 0
 mccormick1[83]: - u[83] + r[83] <= 0
 mccormick1[84]: - u[84] + r[84] <= 0
 mccormick1[85]: - u[85] + r[85] <= 0
 mccormick1[86]: - u[86] + r[86] <= 0
 mccormick1[87]: - u[87] + r[87] <= 0
 mccormick1[88]: - u[88] + r[88] <= 0
 mccormick1[89]: - u[89] + r[89] <= 0
 mccormick1[90]: - u[90] + r[90] <= 0
 mccormick1[91]: - u[91] + r[91] <= 0
 mccormick1[92]: - u[92] + r[92] <= 0
 mccormick1[93]: - u[93] + r[93] <= 0
 mccormick1[94]: - u[94] + r[94] <= 0
 mccormick1[95]: - u[95] + r[95] <= 0
 mccormick1[96]: - u[96] + r[96] <= 0
 mccormick1[97]: - u[97] + r[97] <= 0
 mccormick1[98]: - u[98] + r[98] <= 0
 mccormick1[99]: - u[99] + r[99] <= 0
 mccormick1[100]: - u[100] + r[100] <= 0
 mccormick1[101]: - u[101] + r[101] <= 0
 mccormick1[102]: - u[102] + r[102] <= 0
 mccormick1[103]: - u[103] + r[103] <= 0
 mccormick1[104]: - u[104] + r[104] <= 0
 mccormick1[105]: - u[105] + r[105] <= 0
 mccormick1[106]: - u[106] + r[106] <= 0
 mccormick1[107]: - u[107] + r[107] <= 0
 mccormick1[108]: - u[108] + r[108] <= 0
 mccormick1[109]: - u[109] + r[109] <= 0
 mccormick1[110]: - u[110] + r[110] <= 0
 mccormick1[111]: - u[111] + r[111] <= 0
 mccormick1[112]: - u[112] + r[112] <= 0
 mccormick1[113]: - u[113] + r[113] <= 0
 mccormick1[114]: - u[114] + r[114] <= 0
 mccormick1[115]: - u[115] + r[115] <= 0
 mccormick1[116]: - u[116] + r[116] <= 0
 mccormick1[117]: - u[117] + r[117] <= 0
 mccormick1[118]: - u[118] + r[118] <= 0
 mccormick1[119]: - u[119] + r[119] <= 0
 mccormick1[120]: - u[120] + r[120] <= 0
 mccormick1[121]: - u[121] + r[121] <= 0
 mccormick1[122]: - u[122] + r[122] <= 0
 mccormick1[123]: - u[123] + r[123] <= 0
 mccormick1[124]: - u[124] + r[124] <= 0
 mccormick1[125]: - u[125] + r[125] <= 0
 mccormick1[126]: - u[126] + r[126] <= 0
 mccormick1[127]: - u[127] + r[127] <= 0
 mccormick1[128]: - u[128] + r[128] <= 0
 mccormick1[129]: - u[129] + r[129] <= 0
 mccormick1[130]: - u[130] + r[130] <= 0
 mccormick1[131]: - u[131] + r[131] <= 0
 mccormick1[132]: - u[132] + r[132] <= 0
 mccormick1[133]: - u[133] + r[133] <= 0
 mccormick1[134]: - u[134] + r[134] <= 0
 mccormick1[135]: - u[135] + r[135] <= 0
 mccormick1[136]: - u[136] + r[136] <= 0
 mccormick1[137]: - u[137] + r[137] <= 0
 mccormick1[138]: - u[138] + r[138] <= 0
 mccormick1[139]: - u[139] + r[139] <= 0
 mccormick2[0]: - x[0] + r[0] <= 0
 mccormick2[1]: - x[1] + r[1] <= 0
 mccormick2[2]: - x[2] + r[2] <= 0
 mccormick2[3]: - x[3] + r[3] <= 0
 mccormick2[4]: - x[4] + r[4] <= 0
 mccormick2[5]: - x[5] + r[5] <= 0
 mccormick2[6]: - x[6] + r[6] <= 0
 mccormick2[7]: - x[7] + r[7] <= 0
 mccormick2[8]: - x[8] + r[8] <= 0
 mccormick2[9]: - x[9] + r[9] <= 0
 mccormick2[10]: - x[10] + r[10] <= 0
 mccormick2[11]: - x[11] + r[11] <= 0
 mccormick2[12]: - x[12] + r[12] <= 0
 mccormick2[13]: - x[13] + r[13] <= 0
 mccormick2[14]: - x[14] + r[14] <= 0
 mccormick2[15]: - x[15] + r[15] <= 0
 mccormick2[16]: - x[16] + r[16] <= 0
 mccormick2[17]: - x[17] + r[17] <= 0
 mccormick2[18]: - x[18] + r[18] <= 0
 mccormick2[19]: - x[19] + r[19] <= 0
 mccormick2[20]: - x[20] + r[20] <= 0
 mccormick2[21]: - x[21] + r[21] <= 0
 mccormick2[22]: - x[22] + r[22] <= 0
 mccormick2[23]: - x[23] + r[23] <= 0
 mccormick2[24]: - x[24] + r[24] <= 0
 mccormick2[25]: - x[25] + r[25] <= 0
 mccormick2[26]: - x[26] + r[26] <= 0
 mccormick2[27]: - x[27] + r[27] <= 0
 mccormick2[28]: - x[28] + r[28] <= 0
 mccormick2[29]: - x[29] + r[29] <= 0
 mccormick2[30]: - x[30] + r[30] <= 0
 mccormick2[31]: - x[31] + r[31] <= 0
 mccormick2[32]: - x[32] + r[32] <= 0
 mccormick2[33]: - x[33] + r[33] <= 0
 mccormick2[34]: - x[34] + r[34] <= 0
 mccormick2[35]: - x[35] + r[35] <= 0
 mccormick2[36]: - x[36] + r[36] <= 0
 mccormick2[37]: - x[37] + r[37] <= 0
 mccormick2[38]: - x[38] + r[38] <= 0
 mccormick2[39]: - x[39] + r[39] <= 0
 mccormick2[40]: - x[40] + r[40] <= 0
 mccormick2[41]: - x[41] + r[41] <= 0
 mccormick2[42]: - x[42] + r[42] <= 0
 mccormick2[43]: - x[43] + r[43] <= 0
 mccormick2[44]: - x[44] + r[44] <= 0
 mccormick2[45]: - x[45] + r[45] <= 0
 mccormick2[46]: - x[46] + r[46] <= 0
 mccormick2[47]: - x[47] + r[47] <= 0
 mccormick2[48]: - x[48] + r[48] <= 0
 mccormick2[49]: - x[49] + r[49] <= 0
 mccormick2[50]: - x[50] + r[50] <= 0
 mccormick2[51]: - x[51] + r[51] <= 0
 mccormick2[52]: - x[52] + r[52] <= 0
 mccormick2[53]: - x[53] + r[53] <= 0
 mccormick2[54]: - x[54] + r[54] <= 0
 mccormick2[55]: - x[55] + r[55] <= 0
 mccormick2[56]: - x[56] + r[56] <= 0
 mccormick2[57]: - x[57] + r[57] <= 0
 mccormick2[58]: - x[58] + r[58] <= 0
 mccormick2[59]: - x[59] + r[59] <= 0
 mccormick2[60]: - x[60] + r[60] <= 0
 mccormick2[61]: - x[61] + r[61] <= 0
 mccormick2[62]: - x[62] + r[62] <= 0
 mccormick2[63]: - x[63] + r[63] <= 0
 mccormick2[64]: - x[64] + r[64] <= 0
 mccormick2[65]: - x[65] + r[65] <= 0
 mccormick2[66]: - x[66] + r[66] <= 0
 mccormick2[67]: - x[67] + r[67] <= 0
 mccormick2[68]: - x[68] + r[68] <= 0
 mccormick2[69]: - x[69] + r[69] <= 0
 mccormick2[70]: - x[70] + r[70] <= 0
 mccormick2[71]: - x[71] + r[71] <= 0
 mccormick2[72]: - x[72] + r[72] <= 0
 mccormick2[73]: - x[73] + r[73] <= 0
 mccormick2[74]: - x[74] + r[74] <= 0
 mccormick2[75]: - x[75] + r[75] <= 0
 mccormick2[76]: - x[76] + r[76] <= 0
 mccormick2[77]: - x[77] + r[77] <= 0
 mccormick2[78]: - x[78] + r[78] <= 0
 mccormick2[79]: - x[79] + r[79] <= 0
 mccormick2[80]: - x[80] + r[80] <= 0
 mccormick2[81]: - x[81] + r[81] <= 0
 mccormick2[82]: - x[82] + r[82] <= 0
 mccormick2[83]: - x[83] + r[83] <= 0
 mccormick2[84]: - x[84] + r[84] <= 0
 mccormick2[85]: - x[85] + r[85] <= 0
 mccormick2[86]: - x[86] + r[86] <= 0
 mccormick2[87]: - x[87] + r[87] <= 0
 mccormick2[88]: - x[88] + r[88] <= 0
 mccormick2[89]: - x[89] + r[89] <= 0
 mccormick2[90]: - x[90] + r[90] <= 0
 mccormick2[91]: - x[91] + r[91] <= 0
 mccormick2[92]: - x[92] + r[92] <= 0
 mccormick2[93]: - x[93] + r[93] <= 0
 mccormick2[94]: - x[94] + r[94] <= 0
 mccormick2[95]: - x[95] + r[95] <= 0
 mccormick2[96]: - x[96] + r[96] <= 0
 mccormick2[97]: - x[97] + r[97] <= 0
 mccormick2[98]: - x[98] + r[98] <= 0
 mccormick2[99]: - x[99] + r[99] <= 0
 mccormick2[100]: - x[100] + r[100] <= 0
 mccormick2[101]: - x[101] + r[101] <= 0
 mccormick2[102]: - x[102] + r[102] <= 0
 mccormick2[103]: - x[103] + r[103] <= 0
 mccormick2[104]: - x[104] + r[104] <= 0
 mccormick2[105]: - x[105] + r[105] <= 0
 mccormick2[106]: - x[106] + r[106] <= 0
 mccormick2[107]: - x[107] + r[107] <= 0
 mccormick2[108]: - x[108] + r[108] <= 0
 mccormick2[109]: - x[109] + r[109] <= 0
 mccormick2[110]: - x[110] + r[110] <= 0
 mccormick2[111]: - x[111] + r[111] <= 0
 mccormick2[112]: - x[112] + r[112] <= 0
 mccormick2[113]: - x[113] + r[113] <= 0
 mccormick2[114]: - x[114] + r[114] <= 0
 mccormick2[115]: - x[115] + r[115] <= 0
 mccormick2[116]: - x[116] + r[116] <= 0
 mccormick2[117]: - x[117] + r[117] <= 0
 mccormick2[118]: - x[118] + r[118] <= 0
 mccormick2[119]: - x[119] + r[119] <= 0
 mccormick2[120]: - x[120] + r[120] <= 0
 mccormick2[121]: - x[121] + r[121] <= 0
 mccormick2[122]: - x[122] + r[122] <= 0
 mccormick2[123]: - x[123] + r[123] <= 0
 mccormick2[124]: - x[124] + r[124] <= 0
 mccormick2[125]: - x[125] + r[125] <= 0
 mccormick2[126]: - x[126] + r[126] <= 0
 mccormick2[127]: - x[127] + r[127] <= 0
 mccormick2[128]: - x[128] + r[128] <= 0
 mccormick2[129]: - x[129] + r[129] <= 0
 mccormick2[130]: - x[130] + r[130] <= 0
 mccormick2[131]: - x[131] + r[131] <= 0
 mccormick2[132]: - x[132] + r[132] <= 0
 mccormick2[133]: - x[133] + r[133] <= 0
 mccormick2[134]: - x[134] + r[134] <= 0
 mccormick2[135]: - x[135] + r[135] <= 0
 mccormick2[136]: - x[136] + r[136] <= 0
 mccormick2[137]: - x[137] + r[137] <= 0
 mccormick2[138]: - x[138] + r[138] <= 0
 mccormick2[139]: - x[139] + r[139] <= 0
 mccormick3[0]: x[0] + u[0] - r[0] <= 1
 mccormick3[1]: x[1] + u[1] - r[1] <= 1
 mccormick3[2]: x[2] + u[2] - r[2] <= 1
 mccormick3[3]: x[3] + u[3] - r[3] <= 1
 mccormick3[4]: x[4] + u[4] - r[4] <= 1
 mccormick3[5]: x[5] + u[5] - r[5] <= 1
 mccormick3[6]: x[6] + u[6] - r[6] <= 1
 mccormick3[7]: x[7] + u[7] - r[7] <= 1
 mccormick3[8]: x[8] + u[8] - r[8] <= 1
 mccormick3[9]: x[9] + u[9] - r[9] <= 1
 mccormick3[10]: x[10] + u[10] - r[10] <= 1
 mccormick3[11]: x[11] + u[11] - r[11] <= 1
 mccormick3[12]: x[12] + u[12] - r[12] <= 1
 mccormick3[13]: x[13] + u[13] - r[13] <= 1
 mccormick3[14]: x[14] + u[14] - r[14] <= 1
 mccormick3[15]: x[15] + u[15] - r[15] <= 1
 mccormick3[16]: x[16] + u[16] - r[16] <= 1
 mccormick3[17]: x[17] + u[17] - r[17] <= 1
 mccormick3[18]: x[18] + u[18] - r[18] <= 1
 mccormick3[19]: x[19] + u[19] - r[19] <= 1
 mccormick3[20]: x[20] + u[20] - r[20] <= 1
 mccormick3[21]: x[21] + u[21] - r[21] <= 1
 mccormick3[22]: x[22] + u[22] - r[22] <= 1
 mccormick3[23]: x[23] + u[23] - r[23] <= 1
 mccormick3[24]: x[24] + u[24] - r[24] <= 1
 mccormick3[25]: x[25] + u[25] - r[25] <= 1
 mccormick3[26]: x[26] + u[26] - r[26] <= 1
 mccormick3[27]: x[27] + u[27] - r[27] <= 1
 mccormick3[28]: x[28] + u[28] - r[28] <= 1
 mccormick3[29]: x[29] + u[29] - r[29] <= 1
 mccormick3[30]: x[30] + u[30] - r[30] <= 1
 mccormick3[31]: x[31] + u[31] - r[31] <= 1
 mccormick3[32]: x[32] + u[32] - r[32] <= 1
 mccormick3[33]: x[33] + u[33] - r[33] <= 1
 mccormick3[34]: x[34] + u[34] - r[34] <= 1
 mccormick3[35]: x[35] + u[35] - r[35] <= 1
 mccormick3[36]: x[36] + u[36] - r[36] <= 1
 mccormick3[37]: x[37] + u[37] - r[37] <= 1
 mccormick3[38]: x[38] + u[38] - r[38] <= 1
 mccormick3[39]: x[39] + u[39] - r[39] <= 1
 mccormick3[40]: x[40] + u[40] - r[40] <= 1
 mccormick3[41]: x[41] + u[41] - r[41] <= 1
 mccormick3[42]: x[42] + u[42] - r[42] <= 1
 mccormick3[43]: x[43] + u[43] - r[43] <= 1
 mccormick3[44]: x[44] + u[44] - r[44] <= 1
 mccormick3[45]: x[45] + u[45] - r[45] <= 1
 mccormick3[46]: x[46] + u[46] - r[46] <= 1
 mccormick3[47]: x[47] + u[47] - r[47] <= 1
 mccormick3[48]: x[48] + u[48] - r[48] <= 1
 mccormick3[49]: x[49] + u[49] - r[49] <= 1
 mccormick3[50]: x[50] + u[50] - r[50] <= 1
 mccormick3[51]: x[51] + u[51] - r[51] <= 1
 mccormick3[52]: x[52] + u[52] - r[52] <= 1
 mccormick3[53]: x[53] + u[53] - r[53] <= 1
 mccormick3[54]: x[54] + u[54] - r[54] <= 1
 mccormick3[55]: x[55] + u[55] - r[55] <= 1
 mccormick3[56]: x[56] + u[56] - r[56] <= 1
 mccormick3[57]: x[57] + u[57] - r[57] <= 1
 mccormick3[58]: x[58] + u[58] - r[58] <= 1
 mccormick3[59]: x[59] + u[59] - r[59] <= 1
 mccormick3[60]: x[60] + u[60] - r[60] <= 1
 mccormick3[61]: x[61] + u[61] - r[61] <= 1
 mccormick3[62]: x[62] + u[62] - r[62] <= 1
 mccormick3[63]: x[63] + u[63] - r[63] <= 1
 mccormick3[64]: x[64] + u[64] - r[64] <= 1
 mccormick3[65]: x[65] + u[65] - r[65] <= 1
 mccormick3[66]: x[66] + u[66] - r[66] <= 1
 mccormick3[67]: x[67] + u[67] - r[67] <= 1
 mccormick3[68]: x[68] + u[68] - r[68] <= 1
 mccormick3[69]: x[69] + u[69] - r[69] <= 1
 mccormick3[70]: x[70] + u[70] - r[70] <= 1
 mccormick3[71]: x[71] + u[71] - r[71] <= 1
 mccormick3[72]: x[72] + u[72] - r[72] <= 1
 mccormick3[73]: x[73] + u[73] - r[73] <= 1
 mccormick3[74]: x[74] + u[74] - r[74] <= 1
 mccormick3[75]: x[75] + u[75] - r[75] <= 1
 mccormick3[76]: x[76] + u[76] - r[76] <= 1
 mccormick3[77]: x[77] + u[77] - r[77] <= 1
 mccormick3[78]: x[78] + u[78] - r[78] <= 1
 mccormick3[79]: x[79] + u[79] - r[79] <= 1
 mccormick3[80]: x[80] + u[80] - r[80] <= 1
 mccormick3[81]: x[81] + u[81] - r[81] <= 1
 mccormick3[82]: x[82] + u[82] - r[82] <= 1
 mccormick3[83]: x[83] + u[83] - r[83] <= 1
 mccormick3[84]: x[84] + u[84] - r[84] <= 1
 mccormick3[85]: x[85] + u[85] - r[85] <= 1
 mccormick3[86]: x[86] + u[86] - r[86] <= 1
 mccormick3[87]: x[87] + u[87] - r[87] <= 1
 mccormick3[88]: x[88] + u[88] - r[88] <= 1
 mccormick3[89]: x[89] + u[89] - r[89] <= 1
 mccormick3[90]: x[90] + u[90] - r[90] <= 1
 mccormick3[91]: x[91] + u[91] - r[91] <= 1
 mccormick3[92]: x[92] + u[92] - r[92] <= 1
 mccormick3[93]: x[93] + u[93] - r[93] <= 1
 mccormick3[94]: x[94] + u[94] - r[94] <= 1
 mccormick3[95]: x[95] + u[95] - r[95] <= 1
 mccormick3[96]: x[96] + u[96] - r[96] <= 1
 mccormick3[97]: x[97] + u[97] - r[97] <= 1
 mccormick3[98]: x[98] + u[98] - r[98] <= 1
 mccormick3[99]: x[99] + u[99] - r[99] <= 1
 mccormick3[100]: x[100] + u[100] - r[100] <= 1
 mccormick3[101]: x[101] + u[101] - r[101] <= 1
 mccormick3[102]: x[102] + u[102] - r[102] <= 1
 mccormick3[103]: x[103] + u[103] - r[103] <= 1
 mccormick3[104]: x[104] + u[104] - r[104] <= 1
 mccormick3[105]: x[105] + u[105] - r[105] <= 1
 mccormick3[106]: x[106] + u[106] - r[106] <= 1
 mccormick3[107]: x[107] + u[107] - r[107] <= 1
 mccormick3[108]: x[108] + u[108] - r[108] <= 1
 mccormick3[109]: x[109] + u[109] - r[109] <= 1
 mccormick3[110]: x[110] + u[110] - r[110] <= 1
 mccormick3[111]: x[111] + u[111] - r[111] <= 1
 mccormick3[112]: x[112] + u[112] - r[112] <= 1
 mccormick3[113]: x[113] + u[113] - r[113] <= 1
 mccormick3[114]: x[114] + u[114] - r[114] <= 1
 mccormick3[115]: x[115] + u[115] - r[115] <= 1
 mccormick3[116]: x[116] + u[116] - r[116] <= 1
 mccormick3[117]: x[117] + u[117] - r[117] <= 1
 mccormick3[118]: x[118] + u[118] - r[118] <= 1
 mccormick3[119]: x[119] + u[119] - r[119] <= 1
 mccormick3[120]: x[120] + u[120] - r[120] <= 1
 mccormick3[121]: x[121] + u[121] - r[121] <= 1
 mccormick3[122]: x[122] + u[122] - r[122] <= 1
 mccormick3[123]: x[123] + u[123] - r[123] <= 1
 mccormick3[124]: x[124] + u[124] - r[124] <= 1
 mccormick3[125]: x[125] + u[125] - r[125] <= 1
 mccormick3[126]: x[126] + u[126] - r[126] <= 1
 mccormick3[127]: x[127] + u[127] - r[127] <= 1
 mccormick3[128]: x[128] + u[128] - r[128] <= 1
 mccormick3[129]: x[129] + u[129] - r[129] <= 1
 mccormick3[130]: x[130] + u[130] - r[130] <= 1
 mccormick3[131]: x[131] + u[131] - r[131] <= 1
 mccormick3[132]: x[132] + u[132] - r[132] <= 1
 mccormick3[133]: x[133] + u[133] - r[133] <= 1
 mccormick3[134]: x[134] + u[134] - r[134] <= 1
 mccormick3[135]: x[135] + u[135] - r[135] <= 1
 mccormick3[136]: x[136] + u[136] - r[136] <= 1
 mccormick3[137]: x[137] + u[137] - r[137] <= 1
 mccormick3[138]: x[138] + u[138] - r[138] <= 1
 mccormick3[139]: x[139] + u[139] - r[139] <= 1
Bounds
Binaries
 x[0] x[1] x[2] x[3] x[4] x[5] x[6] x[7] x[8] x[9] x[10] x[11] x[12] x[13]
 x[14] x[15] x[16] x[17] x[18] x[19] x[20] x[21] x[22] x[23] x[24] x[25]
 x[26] x[27] x[28] x[29] x[30] x[31] x[32] x[33] x[34] x[35] x[36] x[37]
 x[38] x[39] x[40] x[41] x[42] x[43] x[44] x[45] x[46] x[47] x[48] x[49]
 x[50] x[51] x[52] x[53] x[54] x[55] x[56] x[57] x[58] x[59] x[60] x[61]
 x[62] x[63] x[64] x[65] x[66] x[67] x[68] x[69] x[70] x[71] x[72] x[73]
 x[74] x[75] x[76] x[77] x[78] x[79] x[80] x[81] x[82] x[83] x[84] x[85]
 x[86] x[87] x[88] x[89] x[90] x[91] x[92] x[93] x[94] x[95] x[96] x[97]
 x[98] x[99] x[100] x[101] x[102] x[103] x[104] x[105] x[106] x[107] x[108]
 x[109] x[110] x[111] x[112] x[113] x[114] x[115] x[116] x[117] x[118]
 x[119] x[120] x[121] x[122] x[123] x[124] x[125] x[126] x[127] x[128]
 x[129] x[130] x[131] x[132] x[133] x[134] x[135] x[136] x[137] x[138]
 x[139] u[0] u[1] u[2] u[3] u[4] u[5] u[6] u[7] u[8] u[9] u[10] u[11] u[12]
 u[13] u[14] u[15] u[16] u[17] u[18] u[19] u[20] u[21] u[22] u[23] u[24]
 u[25] u[26] u[27] u[28] u[29] u[30] u[31] u[32] u[33] u[34] u[35] u[36]
 u[37] u[38] u[39] u[40] u[41] u[42] u[43] u[44] u[45] u[46] u[47] u[48]
 u[49] u[50] u[51] u[52] u[53] u[54] u[55] u[56] u[57] u[58] u[59] u[60]
 u[61] u[62] u[63] u[64] u[65] u[66] u[67] u[68] u[69] u[70] u[71] u[72]
 u[73] u[74] u[75] u[76] u[77] u[78] u[79] u[80] u[81] u[82] u[83] u[84]
 u[85] u[86] u[87] u[88] u[89] u[90] u[91] u[92] u[93] u[94] u[95] u[96]
 u[97] u[98] u[99] u[100] u[101] u[102] u[103] u[104] u[105] u[106] u[107]
 u[108] u[109] u[110] u[111] u[112] u[113] u[114] u[115] u[116] u[117]
 u[118] u[119] u[120] u[121] u[122] u[123] u[124] u[125] u[126] u[127]
 u[128] u[129] u[130] u[131] u[132] u[133] u[134] u[135] u[136] u[137]
 u[138] u[139] r[0] r[1] r[2] r[3] r[4] r[5] r[6] r[7] r[8] r[9] r[10]
 r[11] r[12] r[13] r[14] r[15] r[16] r[17] r[18] r[19] r[20] r[21] r[22]
 r[23] r[24] r[25] r[26] r[27] r[28] r[29] r[30] r[31] r[32] r[33] r[34]
 r[35] r[36] r[37] r[38] r[39] r[40] r[41] r[42] r[43] r[44] r[45] r[46]
 r[47] r[48] r[49] r[50] r[51] r[52] r[53] r[54] r[55] r[56] r[57] r[58]
 r[59] r[60] r[61] r[62] r[63] r[64] r[65] r[66] r[67] r[68] r[69] r[70]
 r[71] r[72] r[73] r[74] r[75] r[76] r[77] r[78] r[79] r[80] r[81] r[82]
 r[83] r[84] r[85] r[86] r[87] r[88] r[89] r[90] r[91] r[92] r[93] r[94]
 r[95] r[96] r[97] r[98] r[99] r[100] r[101] r[102] r[103] r[104] r[105]
 r[106] r[107] r[108] r[109] r[110] r[111] r[112] r[113] r[114] r[115]
 r[116] r[117] r[118] r[119] r[120] r[121] r[122] r[123] r[124] r[125]
 r[126] r[127] r[128] r[129] r[130] r[131] r[132] r[133] r[134] r[135]
 r[136] r[137] r[138] r[139]
End
