instances/knapsack/discrete_knapsack_uncertainty/knapsack_140_5.kp
8382
140
714

30 3.0 88
46 4.6 81
48 4.8 78
65 6.5 46
82 8.2 48
80 8.0 87
27 2.7 88
2 0.2 74
51 5.1 37
52 5.2 85
82 8.2 33
21 2.1 17
82 8.2 89
78 7.8 44
71 7.1 73
75 7.5 30
47 4.7 100
46 4.6 96
27 2.7 49
88 8.8 4
51 5.1 44
46 4.6 13
46 4.6 38
77 7.7 62
59 5.9 59
50 5.0 61
4 0.4 54
34 3.4 78
28 2.8 100
93 9.3 79
76 7.6 75
90 9.0 42
86 8.6 26
19 1.9 45
74 7.4 14
59 5.9 71
74 7.4 3
51 5.1 89
82 8.2 89
45 4.5 50
9 0.9 22
88 8.8 52
72 7.2 100
56 5.6 65
81 8.1 97
33 3.3 69
56 5.6 99
4 0.4 55
9 0.9 15
22 2.2 44
1 0.1 5
62 6.2 41
43 4.3 21
42 4.2 31
43 4.3 14
94 9.4 44
31 3.1 97
81 8.1 18
66 6.6 46
96 9.6 85
51 5.1 50
5 0.5 44
58 5.8 76
69 6.9 16
30 3.0 73
10 1.0 63
91 9.1 7
45 4.5 8
18 1.8 99
80 8.0 84
64 6.4 63
44 4.4 29
60 6.0 27
65 6.5 52
86 8.6 93
31 3.1 16
5 0.5 92
9 0.9 99
75 7.5 18
93 9.3 70
24 2.4 33
28 2.8 68
21 2.1 64
44 4.4 28
52 5.2 11
8 0.8 3
66 6.6 84
38 3.8 85
16 1.6 78
85 8.5 33
95 9.5 92
63 6.3 36
95 9.5 28
54 5.4 75
26 2.6 18
59 5.9 17
63 6.3 47
71 7.1 42
30 3.0 15
90 9.0 39
19 1.9 91
54 5.4 32
28 2.8 17
94 9.4 12
75 7.5 17
36 3.6 77
93 9.3 4
89 8.9 7
93 9.3 80
63 6.3 91
29 2.9 8
89 8.9 76
75 7.5 92
23 2.3 30
71 7.1 96
49 4.9 59
5 0.5 73
95 9.5 15
99 9.9 44
35 3.5 33
54 5.4 24
7 0.7 97
70 7.0 40
81 8.1 89
51 5.1 38
33 3.3 95
14 1.4 11
50 5.0 28
93 9.3 66
73 7.3 79
80 8.0 57
55 5.5 5
97 9.7 2
54 5.4 65
3 0.3 64
92 9.2 54
3 0.3 15
21 2.1 28
76 7.6 97
26 2.6 100

37138
642

[2.025242646082341 0.10258003389127357 1.9129660569852889 4.532781343203653 3.597413235437672 2.8821546221247933 2.0236922834240385 0.14964991468370836 0.3346993002433056 3.979296710810792 0.8616145803602651 2.175043394792625 4.099133426560098 2.027288186700517 0.1813283611279784 1.4482020343765472 1.025568830610624 3.8881765685576593 0.7057965541614186 3.179109289601229 0.7235262606805439 4.052641354432423 1.9584273724941912 3.588802910976045 3.898066871382223 3.20477846912261 2.2103662047397505 0.91097987545776 4.422422509073998 4.080163589869611 1.1452792447708187 4.219269316963835 2.6411856220742576 0.8589990812942679 2.0891137025775723 3.606575023959921 2.7991933844935293 1.8987438394283795 3.627897283096884 2.7056338404130953 4.523478364838163 2.7038720658716784 2.770560561536913 3.34618683187341 0.5099595479846961 4.069138239091624 1.0867994975045092 1.2246296138756483 4.499354579386363 1.8261186292901295 1.2736946371886666 3.969431544456945 3.792031660700286 4.075721231264382 0.29050839448259574 4.159817997681147 0.672597599515717 2.8460706860508282 4.250652641887764 3.066673434732132 0.7002496375281504 2.3333004127141233 1.8420279850233567 3.945586600372745 3.0288415769962787 2.2379506713353368 1.822668346973765 0.6365321855964038 3.4026518870823104 4.1723711434437485 0.1329045156393004 3.5071642359634443 4.0604754299595465 3.4730279651597917 2.361566043379107 2.8189350587497404 1.143373179822922 1.5498862565945295 0.04276741906728041 1.6970030246525356 0.09351671088587768 0.7905458200355581 3.3845361373470313 2.1608411487458348 4.5555747620228635 1.4799501222240454 1.1027778360927998 1.18958951680627 0.479869089496027 4.1687459423747875 0.6197723797092995 3.6519239052807437 1.8402916854125875 0.950479797725994 1.642178056913129 2.939631202242588 0.9446483184756238 1.529844836206718 2.886861683029545 1.7633799099717555 0.6461227762199481 3.2706599899221365 3.348896649282438 0.2869958694507882 1.646989035509159 0.7525046325043743 2.9675803712992175 0.3494706274969952 2.0092087394432587 1.7431719278402638 0.16344659523829205 2.2637956715929812 4.057397515512662 3.9154933025040024 2.7680615658167365 3.36669577990681 3.9823848935543924 1.8369798595868603 1.1617945947576778 0.4776929832500584 1.8945819620227287 3.770575269547809 3.3997357492805103 1.1771520491162757 4.57879481146366 0.003954450110345301 3.8464958100344213 2.9966695971692907 1.8397052769324806 2.860552922683545 0.19450268168842738 2.60584244198696 4.340021374511338 1.9399584015673952 1.8629911366115322 2.702946252566674 0.7818771600954857 2.0960818653744266 4.046907998497349 1.5450825909628734]

[16 60 38 63 68 18 65 44 9 78 28 59 16 88 17 77 33 72 53 54 9 80 76 67 81 72 54 4 18 31 10 52 16 45 44 61 28 1 84 35 63 94 90 46 27 43 30 90 11 32 15 60 29 16 65 92 89 19 12 50 93 27 8 11 64 92 49 95 28 82 70 22 34 99 16 85 51 79 33 35 6 98 75 70 50 38 48 72 10 15 61 49 5 8 20 81 45 5 40 92 81 52 42 84 13 50 7 3 67 69 23 71 49 61 81 27 71 45 33 13 76 57 84 91 65 31 48 32 99 63 30 89 39 24 45 94 17 3 14 48]
